c File: flat50_3_0.col
c
c SOURCE: Joseph Culberson (joe@cs.ualberta.ca)
c DESCRIPTION: Quasi-random coloring problem
c              generated with flatness = 0
c                             probability = 0.139
c                             known coloring = 3
c                             random seed = 1172
c              Creation Date:  Tue Jun  9 12:02:55 1998
c Maximum degree = 8 Minimum degree = 1
c p edge 50 115
c cnf created by edge2cnf
p cnf 150 545
-1 -2 0
-1 -3 0
-2 -3 0
1 2 3 0
-4 -5 0
-4 -6 0
-5 -6 0
4 5 6 0
-7 -8 0
-7 -9 0
-8 -9 0
7 8 9 0
-10 -11 0
-10 -12 0
-11 -12 0
10 11 12 0
-13 -14 0
-13 -15 0
-14 -15 0
13 14 15 0
-16 -17 0
-16 -18 0
-17 -18 0
16 17 18 0
-19 -20 0
-19 -21 0
-20 -21 0
19 20 21 0
-22 -23 0
-22 -24 0
-23 -24 0
22 23 24 0
-25 -26 0
-25 -27 0
-26 -27 0
25 26 27 0
-28 -29 0
-28 -30 0
-29 -30 0
28 29 30 0
-31 -32 0
-31 -33 0
-32 -33 0
31 32 33 0
-34 -35 0
-34 -36 0
-35 -36 0
34 35 36 0
-37 -38 0
-37 -39 0
-38 -39 0
37 38 39 0
-40 -41 0
-40 -42 0
-41 -42 0
40 41 42 0
-43 -44 0
-43 -45 0
-44 -45 0
43 44 45 0
-46 -47 0
-46 -48 0
-47 -48 0
46 47 48 0
-49 -50 0
-49 -51 0
-50 -51 0
49 50 51 0
-52 -53 0
-52 -54 0
-53 -54 0
52 53 54 0
-55 -56 0
-55 -57 0
-56 -57 0
55 56 57 0
-58 -59 0
-58 -60 0
-59 -60 0
58 59 60 0
-61 -62 0
-61 -63 0
-62 -63 0
61 62 63 0
-64 -65 0
-64 -66 0
-65 -66 0
64 65 66 0
-67 -68 0
-67 -69 0
-68 -69 0
67 68 69 0
-70 -71 0
-70 -72 0
-71 -72 0
70 71 72 0
-73 -74 0
-73 -75 0
-74 -75 0
73 74 75 0
-76 -77 0
-76 -78 0
-77 -78 0
76 77 78 0
-79 -80 0
-79 -81 0
-80 -81 0
79 80 81 0
-82 -83 0
-82 -84 0
-83 -84 0
82 83 84 0
-85 -86 0
-85 -87 0
-86 -87 0
85 86 87 0
-88 -89 0
-88 -90 0
-89 -90 0
88 89 90 0
-91 -92 0
-91 -93 0
-92 -93 0
91 92 93 0
-94 -95 0
-94 -96 0
-95 -96 0
94 95 96 0
-97 -98 0
-97 -99 0
-98 -99 0
97 98 99 0
-100 -101 0
-100 -102 0
-101 -102 0
100 101 102 0
-103 -104 0
-103 -105 0
-104 -105 0
103 104 105 0
-106 -107 0
-106 -108 0
-107 -108 0
106 107 108 0
-109 -110 0
-109 -111 0
-110 -111 0
109 110 111 0
-112 -113 0
-112 -114 0
-113 -114 0
112 113 114 0
-115 -116 0
-115 -117 0
-116 -117 0
115 116 117 0
-118 -119 0
-118 -120 0
-119 -120 0
118 119 120 0
-121 -122 0
-121 -123 0
-122 -123 0
121 122 123 0
-124 -125 0
-124 -126 0
-125 -126 0
124 125 126 0
-127 -128 0
-127 -129 0
-128 -129 0
127 128 129 0
-130 -131 0
-130 -132 0
-131 -132 0
130 131 132 0
-133 -134 0
-133 -135 0
-134 -135 0
133 134 135 0
-136 -137 0
-136 -138 0
-137 -138 0
136 137 138 0
-139 -140 0
-139 -141 0
-140 -141 0
139 140 141 0
-142 -143 0
-142 -144 0
-143 -144 0
142 143 144 0
-145 -146 0
-145 -147 0
-146 -147 0
145 146 147 0
-148 -149 0
-148 -150 0
-149 -150 0
148 149 150 0
-67 -1 0
-68 -2 0
-69 -3 0
-88 -1 0
-89 -2 0
-90 -3 0
-91 -1 0
-92 -2 0
-93 -3 0
-55 -4 0
-56 -5 0
-57 -6 0
-76 -4 0
-77 -5 0
-78 -6 0
-124 -4 0
-125 -5 0
-126 -6 0
-130 -4 0
-131 -5 0
-132 -6 0
-142 -4 0
-143 -5 0
-144 -6 0
-67 -7 0
-68 -8 0
-69 -9 0
-70 -7 0
-71 -8 0
-72 -9 0
-76 -7 0
-77 -8 0
-78 -9 0
-106 -7 0
-107 -8 0
-108 -9 0
-109 -7 0
-110 -8 0
-111 -9 0
-121 -7 0
-122 -8 0
-123 -9 0
-136 -7 0
-137 -8 0
-138 -9 0
-58 -10 0
-59 -11 0
-60 -12 0
-94 -10 0
-95 -11 0
-96 -12 0
-100 -10 0
-101 -11 0
-102 -12 0
-109 -10 0
-110 -11 0
-111 -12 0
-118 -10 0
-119 -11 0
-120 -12 0
-124 -10 0
-125 -11 0
-126 -12 0
-139 -10 0
-140 -11 0
-141 -12 0
-73 -13 0
-74 -14 0
-75 -15 0
-112 -13 0
-113 -14 0
-114 -15 0
-121 -13 0
-122 -14 0
-123 -15 0
-124 -13 0
-125 -14 0
-126 -15 0
-70 -16 0
-71 -17 0
-72 -18 0
-97 -16 0
-98 -17 0
-99 -18 0
-112 -16 0
-113 -17 0
-114 -18 0
-118 -16 0
-119 -17 0
-120 -18 0
-106 -19 0
-107 -20 0
-108 -21 0
-130 -19 0
-131 -20 0
-132 -21 0
-55 -22 0
-56 -23 0
-57 -24 0
-76 -22 0
-77 -23 0
-78 -24 0
-115 -22 0
-116 -23 0
-117 -24 0
-130 -22 0
-131 -23 0
-132 -24 0
-145 -22 0
-146 -23 0
-147 -24 0
-52 -25 0
-53 -26 0
-54 -27 0
-55 -25 0
-56 -26 0
-57 -27 0
-67 -25 0
-68 -26 0
-69 -27 0
-79 -25 0
-80 -26 0
-81 -27 0
-136 -25 0
-137 -26 0
-138 -27 0
-139 -25 0
-140 -26 0
-141 -27 0
-148 -25 0
-149 -26 0
-150 -27 0
-55 -28 0
-56 -29 0
-57 -30 0
-64 -28 0
-65 -29 0
-66 -30 0
-91 -28 0
-92 -29 0
-93 -30 0
-58 -31 0
-59 -32 0
-60 -33 0
-61 -31 0
-62 -32 0
-63 -33 0
-76 -31 0
-77 -32 0
-78 -33 0
-118 -31 0
-119 -32 0
-120 -33 0
-139 -31 0
-140 -32 0
-141 -33 0
-70 -34 0
-71 -35 0
-72 -36 0
-130 -34 0
-131 -35 0
-132 -36 0
-136 -34 0
-137 -35 0
-138 -36 0
-115 -37 0
-116 -38 0
-117 -39 0
-52 -40 0
-53 -41 0
-54 -42 0
-82 -40 0
-83 -41 0
-84 -42 0
-97 -40 0
-98 -41 0
-99 -42 0
-100 -40 0
-101 -41 0
-102 -42 0
-127 -40 0
-128 -41 0
-129 -42 0
-148 -40 0
-149 -41 0
-150 -42 0
-58 -43 0
-59 -44 0
-60 -45 0
-61 -43 0
-62 -44 0
-63 -45 0
-64 -43 0
-65 -44 0
-66 -45 0
-115 -43 0
-116 -44 0
-117 -45 0
-118 -43 0
-119 -44 0
-120 -45 0
-136 -43 0
-137 -44 0
-138 -45 0
-52 -46 0
-53 -47 0
-54 -48 0
-64 -46 0
-65 -47 0
-66 -48 0
-124 -46 0
-125 -47 0
-126 -48 0
-127 -46 0
-128 -47 0
-129 -48 0
-52 -49 0
-53 -50 0
-54 -51 0
-58 -49 0
-59 -50 0
-60 -51 0
-85 -49 0
-86 -50 0
-87 -51 0
-88 -49 0
-89 -50 0
-90 -51 0
-139 -49 0
-140 -50 0
-141 -51 0
-136 -52 0
-137 -53 0
-138 -54 0
-118 -55 0
-119 -56 0
-120 -57 0
-127 -55 0
-128 -56 0
-129 -57 0
-130 -55 0
-131 -56 0
-132 -57 0
-136 -58 0
-137 -59 0
-138 -60 0
-142 -58 0
-143 -59 0
-144 -60 0
-133 -61 0
-134 -62 0
-135 -63 0
-142 -61 0
-143 -62 0
-144 -63 0
-106 -64 0
-107 -65 0
-108 -66 0
-109 -64 0
-110 -65 0
-111 -66 0
-118 -64 0
-119 -65 0
-120 -66 0
-109 -67 0
-110 -68 0
-111 -69 0
-118 -67 0
-119 -68 0
-120 -69 0
-124 -67 0
-125 -68 0
-126 -69 0
-103 -70 0
-104 -71 0
-105 -72 0
-133 -70 0
-134 -71 0
-135 -72 0
-121 -73 0
-122 -74 0
-123 -75 0
-130 -73 0
-131 -74 0
-132 -75 0
-136 -76 0
-137 -77 0
-138 -78 0
-139 -76 0
-140 -77 0
-141 -78 0
-112 -79 0
-113 -80 0
-114 -81 0
-121 -82 0
-122 -83 0
-123 -84 0
-103 -85 0
-104 -86 0
-105 -87 0
-145 -85 0
-146 -86 0
-147 -87 0
-148 -85 0
-149 -86 0
-150 -87 0
-121 -88 0
-122 -89 0
-123 -90 0
-121 -91 0
-122 -92 0
-123 -93 0
-130 -91 0
-131 -92 0
-132 -93 0
-133 -91 0
-134 -92 0
-135 -93 0
-148 -91 0
-149 -92 0
-150 -93 0
-115 -94 0
-116 -95 0
-117 -96 0
-118 -94 0
-119 -95 0
-120 -96 0
-142 -94 0
-143 -95 0
-144 -96 0
-106 -97 0
-107 -98 0
-108 -99 0
-109 -97 0
-110 -98 0
-111 -99 0
-103 -100 0
-104 -101 0
-105 -102 0
-112 -100 0
-113 -101 0
-114 -102 0
-130 -100 0
-131 -101 0
-132 -102 0
